*NODE, NSET=NALL
1, 0.000000, 0.000000, 0.000000
2, 6.250000, 0.000000, 0.000000
3, 12.500000, 0.000000, 0.000000
4, 18.750000, 0.000000, 0.000000
5, 25.000000, 0.000000, 0.000000
6, 31.250000, 0.000000, 0.000000
7, 37.500000, 0.000000, 0.000000
8, 43.750000, 0.000000, 0.000000
9, 50.000000, 0.000000, 0.000000
10, 56.250000, 0.000000, 0.000000
11, 62.500000, 0.000000, 0.000000
12, 68.750000, 0.000000, 0.000000
13, 75.000000, 0.000000, 0.000000
14, 81.250000, 0.000000, 0.000000
15, 87.500000, 0.000000, 0.000000
16, 93.750000, 0.000000, 0.000000
17, 100.000000, 0.000000, 0.000000
18, 106.250000, 0.000000, 0.000000
19, 112.500000, 0.000000, 0.000000
20, 118.750000, 0.000000, 0.000000
21, 125.000000, 0.000000, 0.000000
22, 131.250000, 0.000000, 0.000000
23, 137.500000, 0.000000, 0.000000
24, 143.750000, 0.000000, 0.000000
25, 150.000000, 0.000000, 0.000000
26, 0.000000, 4.000000, 0.000000
27, 6.250000, 4.000000, 0.000000
28, 12.500000, 4.000000, 0.000000
29, 18.750000, 4.000000, 0.000000
30, 25.000000, 4.000000, 0.000000
31, 31.250000, 4.000000, 0.000000
32, 37.500000, 4.000000, 0.000000
33, 43.750000, 4.000000, 0.000000
34, 50.000000, 4.000000, 0.000000
35, 56.250000, 4.000000, 0.000000
36, 62.500000, 4.000000, 0.000000
37, 68.750000, 4.000000, 0.000000
38, 75.000000, 4.000000, 0.000000
39, 81.250000, 4.000000, 0.000000
40, 87.500000, 4.000000, 0.000000
41, 93.750000, 4.000000, 0.000000
42, 100.000000, 4.000000, 0.000000
43, 106.250000, 4.000000, 0.000000
44, 112.500000, 4.000000, 0.000000
45, 118.750000, 4.000000, 0.000000
46, 125.000000, 4.000000, 0.000000
47, 131.250000, 4.000000, 0.000000
48, 137.500000, 4.000000, 0.000000
49, 143.750000, 4.000000, 0.000000
50, 150.000000, 4.000000, 0.000000
51, 0.000000, 8.000000, 0.000000
52, 6.250000, 8.000000, 0.000000
53, 12.500000, 8.000000, 0.000000
54, 18.750000, 8.000000, 0.000000
55, 25.000000, 8.000000, 0.000000
56, 31.250000, 8.000000, 0.000000
57, 37.500000, 8.000000, 0.000000
58, 43.750000, 8.000000, 0.000000
59, 50.000000, 8.000000, 0.000000
60, 56.250000, 8.000000, 0.000000
61, 62.500000, 8.000000, 0.000000
62, 68.750000, 8.000000, 0.000000
63, 75.000000, 8.000000, 0.000000
64, 81.250000, 8.000000, 0.000000
65, 87.500000, 8.000000, 0.000000
66, 93.750000, 8.000000, 0.000000
67, 100.000000, 8.000000, 0.000000
68, 106.250000, 8.000000, 0.000000
69, 112.500000, 8.000000, 0.000000
70, 118.750000, 8.000000, 0.000000
71, 125.000000, 8.000000, 0.000000
72, 131.250000, 8.000000, 0.000000
73, 137.500000, 8.000000, 0.000000
74, 143.750000, 8.000000, 0.000000
75, 150.000000, 8.000000, 0.000000
76, 0.000000, 12.000000, 0.000000
77, 6.250000, 12.000000, 0.000000
78, 12.500000, 12.000000, 0.000000
79, 18.750000, 12.000000, 0.000000
80, 25.000000, 12.000000, 0.000000
81, 31.250000, 12.000000, 0.000000
82, 37.500000, 12.000000, 0.000000
83, 43.750000, 12.000000, 0.000000
84, 50.000000, 12.000000, 0.000000
85, 56.250000, 12.000000, 0.000000
86, 62.500000, 12.000000, 0.000000
87, 68.750000, 12.000000, 0.000000
88, 75.000000, 12.000000, 0.000000
89, 81.250000, 12.000000, 0.000000
90, 87.500000, 12.000000, 0.000000
91, 93.750000, 12.000000, 0.000000
92, 100.000000, 12.000000, 0.000000
93, 106.250000, 12.000000, 0.000000
94, 112.500000, 12.000000, 0.000000
95, 118.750000, 12.000000, 0.000000
96, 125.000000, 12.000000, 0.000000
97, 131.250000, 12.000000, 0.000000
98, 137.500000, 12.000000, 0.000000
99, 143.750000, 12.000000, 0.000000
100, 150.000000, 12.000000, 0.000000
101, 0.000000, 16.000000, 0.000000
102, 6.250000, 16.000000, 0.000000
103, 12.500000, 16.000000, 0.000000
104, 18.750000, 16.000000, 0.000000
105, 25.000000, 16.000000, 0.000000
106, 31.250000, 16.000000, 0.000000
107, 37.500000, 16.000000, 0.000000
108, 43.750000, 16.000000, 0.000000
109, 50.000000, 16.000000, 0.000000
110, 56.250000, 16.000000, 0.000000
111, 62.500000, 16.000000, 0.000000
112, 68.750000, 16.000000, 0.000000
113, 75.000000, 16.000000, 0.000000
114, 81.250000, 16.000000, 0.000000
115, 87.500000, 16.000000, 0.000000
116, 93.750000, 16.000000, 0.000000
117, 100.000000, 16.000000, 0.000000
118, 106.250000, 16.000000, 0.000000
119, 112.500000, 16.000000, 0.000000
120, 118.750000, 16.000000, 0.000000
121, 125.000000, 16.000000, 0.000000
122, 131.250000, 16.000000, 0.000000
123, 137.500000, 16.000000, 0.000000
124, 143.750000, 16.000000, 0.000000
125, 150.000000, 16.000000, 0.000000
126, 0.000000, 20.000000, 0.000000
127, 6.250000, 20.000000, 0.000000
128, 12.500000, 20.000000, 0.000000
129, 18.750000, 20.000000, 0.000000
130, 25.000000, 20.000000, 0.000000
131, 31.250000, 20.000000, 0.000000
132, 37.500000, 20.000000, 0.000000
133, 43.750000, 20.000000, 0.000000
134, 50.000000, 20.000000, 0.000000
135, 56.250000, 20.000000, 0.000000
136, 62.500000, 20.000000, 0.000000
137, 68.750000, 20.000000, 0.000000
138, 75.000000, 20.000000, 0.000000
139, 81.250000, 20.000000, 0.000000
140, 87.500000, 20.000000, 0.000000
141, 93.750000, 20.000000, 0.000000
142, 100.000000, 20.000000, 0.000000
143, 106.250000, 20.000000, 0.000000
144, 112.500000, 20.000000, 0.000000
145, 118.750000, 20.000000, 0.000000
146, 125.000000, 20.000000, 0.000000
147, 131.250000, 20.000000, 0.000000
148, 137.500000, 20.000000, 0.000000
149, 143.750000, 20.000000, 0.000000
150, 150.000000, 20.000000, 0.000000
151, 0.000000, 0.000000, 4.000000
152, 6.250000, 0.000000, 4.000000
153, 12.500000, 0.000000, 4.000000
154, 18.750000, 0.000000, 4.000000
155, 25.000000, 0.000000, 4.000000
156, 31.250000, 0.000000, 4.000000
157, 37.500000, 0.000000, 4.000000
158, 43.750000, 0.000000, 4.000000
159, 50.000000, 0.000000, 4.000000
160, 56.250000, 0.000000, 4.000000
161, 62.500000, 0.000000, 4.000000
162, 68.750000, 0.000000, 4.000000
163, 75.000000, 0.000000, 4.000000
164, 81.250000, 0.000000, 4.000000
165, 87.500000, 0.000000, 4.000000
166, 93.750000, 0.000000, 4.000000
167, 100.000000, 0.000000, 4.000000
168, 106.250000, 0.000000, 4.000000
169, 112.500000, 0.000000, 4.000000
170, 118.750000, 0.000000, 4.000000
171, 125.000000, 0.000000, 4.000000
172, 131.250000, 0.000000, 4.000000
173, 137.500000, 0.000000, 4.000000
174, 143.750000, 0.000000, 4.000000
175, 150.000000, 0.000000, 4.000000
176, 0.000000, 4.000000, 4.000000
177, 6.250000, 4.000000, 4.000000
178, 12.500000, 4.000000, 4.000000
179, 18.750000, 4.000000, 4.000000
180, 25.000000, 4.000000, 4.000000
181, 31.250000, 4.000000, 4.000000
182, 37.500000, 4.000000, 4.000000
183, 43.750000, 4.000000, 4.000000
184, 50.000000, 4.000000, 4.000000
185, 56.250000, 4.000000, 4.000000
186, 62.500000, 4.000000, 4.000000
187, 68.750000, 4.000000, 4.000000
188, 75.000000, 4.000000, 4.000000
189, 81.250000, 4.000000, 4.000000
190, 87.500000, 4.000000, 4.000000
191, 93.750000, 4.000000, 4.000000
192, 100.000000, 4.000000, 4.000000
193, 106.250000, 4.000000, 4.000000
194, 112.500000, 4.000000, 4.000000
195, 118.750000, 4.000000, 4.000000
196, 125.000000, 4.000000, 4.000000
197, 131.250000, 4.000000, 4.000000
198, 137.500000, 4.000000, 4.000000
199, 143.750000, 4.000000, 4.000000
200, 150.000000, 4.000000, 4.000000
201, 0.000000, 8.000000, 4.000000
202, 6.250000, 8.000000, 4.000000
203, 12.500000, 8.000000, 4.000000
204, 18.750000, 8.000000, 4.000000
205, 25.000000, 8.000000, 4.000000
206, 31.250000, 8.000000, 4.000000
207, 37.500000, 8.000000, 4.000000
208, 43.750000, 8.000000, 4.000000
209, 50.000000, 8.000000, 4.000000
210, 56.250000, 8.000000, 4.000000
211, 62.500000, 8.000000, 4.000000
212, 68.750000, 8.000000, 4.000000
213, 75.000000, 8.000000, 4.000000
214, 81.250000, 8.000000, 4.000000
215, 87.500000, 8.000000, 4.000000
216, 93.750000, 8.000000, 4.000000
217, 100.000000, 8.000000, 4.000000
218, 106.250000, 8.000000, 4.000000
219, 112.500000, 8.000000, 4.000000
220, 118.750000, 8.000000, 4.000000
221, 125.000000, 8.000000, 4.000000
222, 131.250000, 8.000000, 4.000000
223, 137.500000, 8.000000, 4.000000
224, 143.750000, 8.000000, 4.000000
225, 150.000000, 8.000000, 4.000000
226, 0.000000, 12.000000, 4.000000
227, 6.250000, 12.000000, 4.000000
228, 12.500000, 12.000000, 4.000000
229, 18.750000, 12.000000, 4.000000
230, 25.000000, 12.000000, 4.000000
231, 31.250000, 12.000000, 4.000000
232, 37.500000, 12.000000, 4.000000
233, 43.750000, 12.000000, 4.000000
234, 50.000000, 12.000000, 4.000000
235, 56.250000, 12.000000, 4.000000
236, 62.500000, 12.000000, 4.000000
237, 68.750000, 12.000000, 4.000000
238, 75.000000, 12.000000, 4.000000
239, 81.250000, 12.000000, 4.000000
240, 87.500000, 12.000000, 4.000000
241, 93.750000, 12.000000, 4.000000
242, 100.000000, 12.000000, 4.000000
243, 106.250000, 12.000000, 4.000000
244, 112.500000, 12.000000, 4.000000
245, 118.750000, 12.000000, 4.000000
246, 125.000000, 12.000000, 4.000000
247, 131.250000, 12.000000, 4.000000
248, 137.500000, 12.000000, 4.000000
249, 143.750000, 12.000000, 4.000000
250, 150.000000, 12.000000, 4.000000
251, 0.000000, 16.000000, 4.000000
252, 6.250000, 16.000000, 4.000000
253, 12.500000, 16.000000, 4.000000
254, 18.750000, 16.000000, 4.000000
255, 25.000000, 16.000000, 4.000000
256, 31.250000, 16.000000, 4.000000
257, 37.500000, 16.000000, 4.000000
258, 43.750000, 16.000000, 4.000000
259, 50.000000, 16.000000, 4.000000
260, 56.250000, 16.000000, 4.000000
261, 62.500000, 16.000000, 4.000000
262, 68.750000, 16.000000, 4.000000
263, 75.000000, 16.000000, 4.000000
264, 81.250000, 16.000000, 4.000000
265, 87.500000, 16.000000, 4.000000
266, 93.750000, 16.000000, 4.000000
267, 100.000000, 16.000000, 4.000000
268, 106.250000, 16.000000, 4.000000
269, 112.500000, 16.000000, 4.000000
270, 118.750000, 16.000000, 4.000000
271, 125.000000, 16.000000, 4.000000
272, 131.250000, 16.000000, 4.000000
273, 137.500000, 16.000000, 4.000000
274, 143.750000, 16.000000, 4.000000
275, 150.000000, 16.000000, 4.000000
276, 0.000000, 20.000000, 4.000000
277, 6.250000, 20.000000, 4.000000
278, 12.500000, 20.000000, 4.000000
279, 18.750000, 20.000000, 4.000000
280, 25.000000, 20.000000, 4.000000
281, 31.250000, 20.000000, 4.000000
282, 37.500000, 20.000000, 4.000000
283, 43.750000, 20.000000, 4.000000
284, 50.000000, 20.000000, 4.000000
285, 56.250000, 20.000000, 4.000000
286, 62.500000, 20.000000, 4.000000
287, 68.750000, 20.000000, 4.000000
288, 75.000000, 20.000000, 4.000000
289, 81.250000, 20.000000, 4.000000
290, 87.500000, 20.000000, 4.000000
291, 93.750000, 20.000000, 4.000000
292, 100.000000, 20.000000, 4.000000
293, 106.250000, 20.000000, 4.000000
294, 112.500000, 20.000000, 4.000000
295, 118.750000, 20.000000, 4.000000
296, 125.000000, 20.000000, 4.000000
297, 131.250000, 20.000000, 4.000000
298, 137.500000, 20.000000, 4.000000
299, 143.750000, 20.000000, 4.000000
300, 150.000000, 20.000000, 4.000000
301, 0.000000, 0.000000, 8.000000
302, 6.250000, 0.000000, 8.000000
303, 12.500000, 0.000000, 8.000000
304, 18.750000, 0.000000, 8.000000
305, 25.000000, 0.000000, 8.000000
306, 31.250000, 0.000000, 8.000000
307, 37.500000, 0.000000, 8.000000
308, 43.750000, 0.000000, 8.000000
309, 50.000000, 0.000000, 8.000000
310, 56.250000, 0.000000, 8.000000
311, 62.500000, 0.000000, 8.000000
312, 68.750000, 0.000000, 8.000000
313, 75.000000, 0.000000, 8.000000
314, 81.250000, 0.000000, 8.000000
315, 87.500000, 0.000000, 8.000000
316, 93.750000, 0.000000, 8.000000
317, 100.000000, 0.000000, 8.000000
318, 106.250000, 0.000000, 8.000000
319, 112.500000, 0.000000, 8.000000
320, 118.750000, 0.000000, 8.000000
321, 125.000000, 0.000000, 8.000000
322, 131.250000, 0.000000, 8.000000
323, 137.500000, 0.000000, 8.000000
324, 143.750000, 0.000000, 8.000000
325, 150.000000, 0.000000, 8.000000
326, 0.000000, 4.000000, 8.000000
327, 6.250000, 4.000000, 8.000000
328, 12.500000, 4.000000, 8.000000
329, 18.750000, 4.000000, 8.000000
330, 25.000000, 4.000000, 8.000000
331, 31.250000, 4.000000, 8.000000
332, 37.500000, 4.000000, 8.000000
333, 43.750000, 4.000000, 8.000000
334, 50.000000, 4.000000, 8.000000
335, 56.250000, 4.000000, 8.000000
336, 62.500000, 4.000000, 8.000000
337, 68.750000, 4.000000, 8.000000
338, 75.000000, 4.000000, 8.000000
339, 81.250000, 4.000000, 8.000000
340, 87.500000, 4.000000, 8.000000
341, 93.750000, 4.000000, 8.000000
342, 100.000000, 4.000000, 8.000000
343, 106.250000, 4.000000, 8.000000
344, 112.500000, 4.000000, 8.000000
345, 118.750000, 4.000000, 8.000000
346, 125.000000, 4.000000, 8.000000
347, 131.250000, 4.000000, 8.000000
348, 137.500000, 4.000000, 8.000000
349, 143.750000, 4.000000, 8.000000
350, 150.000000, 4.000000, 8.000000
351, 0.000000, 8.000000, 8.000000
352, 6.250000, 8.000000, 8.000000
353, 12.500000, 8.000000, 8.000000
354, 18.750000, 8.000000, 8.000000
355, 25.000000, 8.000000, 8.000000
356, 31.250000, 8.000000, 8.000000
357, 37.500000, 8.000000, 8.000000
358, 43.750000, 8.000000, 8.000000
359, 50.000000, 8.000000, 8.000000
360, 56.250000, 8.000000, 8.000000
361, 62.500000, 8.000000, 8.000000
362, 68.750000, 8.000000, 8.000000
363, 75.000000, 8.000000, 8.000000
364, 81.250000, 8.000000, 8.000000
365, 87.500000, 8.000000, 8.000000
366, 93.750000, 8.000000, 8.000000
367, 100.000000, 8.000000, 8.000000
368, 106.250000, 8.000000, 8.000000
369, 112.500000, 8.000000, 8.000000
370, 118.750000, 8.000000, 8.000000
371, 125.000000, 8.000000, 8.000000
372, 131.250000, 8.000000, 8.000000
373, 137.500000, 8.000000, 8.000000
374, 143.750000, 8.000000, 8.000000
375, 150.000000, 8.000000, 8.000000
376, 0.000000, 12.000000, 8.000000
377, 6.250000, 12.000000, 8.000000
378, 12.500000, 12.000000, 8.000000
379, 18.750000, 12.000000, 8.000000
380, 25.000000, 12.000000, 8.000000
381, 31.250000, 12.000000, 8.000000
382, 37.500000, 12.000000, 8.000000
383, 43.750000, 12.000000, 8.000000
384, 50.000000, 12.000000, 8.000000
385, 56.250000, 12.000000, 8.000000
386, 62.500000, 12.000000, 8.000000
387, 68.750000, 12.000000, 8.000000
388, 75.000000, 12.000000, 8.000000
389, 81.250000, 12.000000, 8.000000
390, 87.500000, 12.000000, 8.000000
391, 93.750000, 12.000000, 8.000000
392, 100.000000, 12.000000, 8.000000
393, 106.250000, 12.000000, 8.000000
394, 112.500000, 12.000000, 8.000000
395, 118.750000, 12.000000, 8.000000
396, 125.000000, 12.000000, 8.000000
397, 131.250000, 12.000000, 8.000000
398, 137.500000, 12.000000, 8.000000
399, 143.750000, 12.000000, 8.000000
400, 150.000000, 12.000000, 8.000000
401, 0.000000, 16.000000, 8.000000
402, 6.250000, 16.000000, 8.000000
403, 12.500000, 16.000000, 8.000000
404, 18.750000, 16.000000, 8.000000
405, 25.000000, 16.000000, 8.000000
406, 31.250000, 16.000000, 8.000000
407, 37.500000, 16.000000, 8.000000
408, 43.750000, 16.000000, 8.000000
409, 50.000000, 16.000000, 8.000000
410, 56.250000, 16.000000, 8.000000
411, 62.500000, 16.000000, 8.000000
412, 68.750000, 16.000000, 8.000000
413, 75.000000, 16.000000, 8.000000
414, 81.250000, 16.000000, 8.000000
415, 87.500000, 16.000000, 8.000000
416, 93.750000, 16.000000, 8.000000
417, 100.000000, 16.000000, 8.000000
418, 106.250000, 16.000000, 8.000000
419, 112.500000, 16.000000, 8.000000
420, 118.750000, 16.000000, 8.000000
421, 125.000000, 16.000000, 8.000000
422, 131.250000, 16.000000, 8.000000
423, 137.500000, 16.000000, 8.000000
424, 143.750000, 16.000000, 8.000000
425, 150.000000, 16.000000, 8.000000
426, 0.000000, 20.000000, 8.000000
427, 6.250000, 20.000000, 8.000000
428, 12.500000, 20.000000, 8.000000
429, 18.750000, 20.000000, 8.000000
430, 25.000000, 20.000000, 8.000000
431, 31.250000, 20.000000, 8.000000
432, 37.500000, 20.000000, 8.000000
433, 43.750000, 20.000000, 8.000000
434, 50.000000, 20.000000, 8.000000
435, 56.250000, 20.000000, 8.000000
436, 62.500000, 20.000000, 8.000000
437, 68.750000, 20.000000, 8.000000
438, 75.000000, 20.000000, 8.000000
439, 81.250000, 20.000000, 8.000000
440, 87.500000, 20.000000, 8.000000
441, 93.750000, 20.000000, 8.000000
442, 100.000000, 20.000000, 8.000000
443, 106.250000, 20.000000, 8.000000
444, 112.500000, 20.000000, 8.000000
445, 118.750000, 20.000000, 8.000000
446, 125.000000, 20.000000, 8.000000
447, 131.250000, 20.000000, 8.000000
448, 137.500000, 20.000000, 8.000000
449, 143.750000, 20.000000, 8.000000
450, 150.000000, 20.000000, 8.000000
451, 0.000000, 0.000000, 12.000000
452, 6.250000, 0.000000, 12.000000
453, 12.500000, 0.000000, 12.000000
454, 18.750000, 0.000000, 12.000000
455, 25.000000, 0.000000, 12.000000
456, 31.250000, 0.000000, 12.000000
457, 37.500000, 0.000000, 12.000000
458, 43.750000, 0.000000, 12.000000
459, 50.000000, 0.000000, 12.000000
460, 56.250000, 0.000000, 12.000000
461, 62.500000, 0.000000, 12.000000
462, 68.750000, 0.000000, 12.000000
463, 75.000000, 0.000000, 12.000000
464, 81.250000, 0.000000, 12.000000
465, 87.500000, 0.000000, 12.000000
466, 93.750000, 0.000000, 12.000000
467, 100.000000, 0.000000, 12.000000
468, 106.250000, 0.000000, 12.000000
469, 112.500000, 0.000000, 12.000000
470, 118.750000, 0.000000, 12.000000
471, 125.000000, 0.000000, 12.000000
472, 131.250000, 0.000000, 12.000000
473, 137.500000, 0.000000, 12.000000
474, 143.750000, 0.000000, 12.000000
475, 150.000000, 0.000000, 12.000000
476, 0.000000, 4.000000, 12.000000
477, 6.250000, 4.000000, 12.000000
478, 12.500000, 4.000000, 12.000000
479, 18.750000, 4.000000, 12.000000
480, 25.000000, 4.000000, 12.000000
481, 31.250000, 4.000000, 12.000000
482, 37.500000, 4.000000, 12.000000
483, 43.750000, 4.000000, 12.000000
484, 50.000000, 4.000000, 12.000000
485, 56.250000, 4.000000, 12.000000
486, 62.500000, 4.000000, 12.000000
487, 68.750000, 4.000000, 12.000000
488, 75.000000, 4.000000, 12.000000
489, 81.250000, 4.000000, 12.000000
490, 87.500000, 4.000000, 12.000000
491, 93.750000, 4.000000, 12.000000
492, 100.000000, 4.000000, 12.000000
493, 106.250000, 4.000000, 12.000000
494, 112.500000, 4.000000, 12.000000
495, 118.750000, 4.000000, 12.000000
496, 125.000000, 4.000000, 12.000000
497, 131.250000, 4.000000, 12.000000
498, 137.500000, 4.000000, 12.000000
499, 143.750000, 4.000000, 12.000000
500, 150.000000, 4.000000, 12.000000
501, 0.000000, 8.000000, 12.000000
502, 6.250000, 8.000000, 12.000000
503, 12.500000, 8.000000, 12.000000
504, 18.750000, 8.000000, 12.000000
505, 25.000000, 8.000000, 12.000000
506, 31.250000, 8.000000, 12.000000
507, 37.500000, 8.000000, 12.000000
508, 43.750000, 8.000000, 12.000000
509, 50.000000, 8.000000, 12.000000
510, 56.250000, 8.000000, 12.000000
511, 62.500000, 8.000000, 12.000000
512, 68.750000, 8.000000, 12.000000
513, 75.000000, 8.000000, 12.000000
514, 81.250000, 8.000000, 12.000000
515, 87.500000, 8.000000, 12.000000
516, 93.750000, 8.000000, 12.000000
517, 100.000000, 8.000000, 12.000000
518, 106.250000, 8.000000, 12.000000
519, 112.500000, 8.000000, 12.000000
520, 118.750000, 8.000000, 12.000000
521, 125.000000, 8.000000, 12.000000
522, 131.250000, 8.000000, 12.000000
523, 137.500000, 8.000000, 12.000000
524, 143.750000, 8.000000, 12.000000
525, 150.000000, 8.000000, 12.000000
526, 0.000000, 12.000000, 12.000000
527, 6.250000, 12.000000, 12.000000
528, 12.500000, 12.000000, 12.000000
529, 18.750000, 12.000000, 12.000000
530, 25.000000, 12.000000, 12.000000
531, 31.250000, 12.000000, 12.000000
532, 37.500000, 12.000000, 12.000000
533, 43.750000, 12.000000, 12.000000
534, 50.000000, 12.000000, 12.000000
535, 56.250000, 12.000000, 12.000000
536, 62.500000, 12.000000, 12.000000
537, 68.750000, 12.000000, 12.000000
538, 75.000000, 12.000000, 12.000000
539, 81.250000, 12.000000, 12.000000
540, 87.500000, 12.000000, 12.000000
541, 93.750000, 12.000000, 12.000000
542, 100.000000, 12.000000, 12.000000
543, 106.250000, 12.000000, 12.000000
544, 112.500000, 12.000000, 12.000000
545, 118.750000, 12.000000, 12.000000
546, 125.000000, 12.000000, 12.000000
547, 131.250000, 12.000000, 12.000000
548, 137.500000, 12.000000, 12.000000
549, 143.750000, 12.000000, 12.000000
550, 150.000000, 12.000000, 12.000000
551, 0.000000, 16.000000, 12.000000
552, 6.250000, 16.000000, 12.000000
553, 12.500000, 16.000000, 12.000000
554, 18.750000, 16.000000, 12.000000
555, 25.000000, 16.000000, 12.000000
556, 31.250000, 16.000000, 12.000000
557, 37.500000, 16.000000, 12.000000
558, 43.750000, 16.000000, 12.000000
559, 50.000000, 16.000000, 12.000000
560, 56.250000, 16.000000, 12.000000
561, 62.500000, 16.000000, 12.000000
562, 68.750000, 16.000000, 12.000000
563, 75.000000, 16.000000, 12.000000
564, 81.250000, 16.000000, 12.000000
565, 87.500000, 16.000000, 12.000000
566, 93.750000, 16.000000, 12.000000
567, 100.000000, 16.000000, 12.000000
568, 106.250000, 16.000000, 12.000000
569, 112.500000, 16.000000, 12.000000
570, 118.750000, 16.000000, 12.000000
571, 125.000000, 16.000000, 12.000000
572, 131.250000, 16.000000, 12.000000
573, 137.500000, 16.000000, 12.000000
574, 143.750000, 16.000000, 12.000000
575, 150.000000, 16.000000, 12.000000
576, 0.000000, 20.000000, 12.000000
577, 6.250000, 20.000000, 12.000000
578, 12.500000, 20.000000, 12.000000
579, 18.750000, 20.000000, 12.000000
580, 25.000000, 20.000000, 12.000000
581, 31.250000, 20.000000, 12.000000
582, 37.500000, 20.000000, 12.000000
583, 43.750000, 20.000000, 12.000000
584, 50.000000, 20.000000, 12.000000
585, 56.250000, 20.000000, 12.000000
586, 62.500000, 20.000000, 12.000000
587, 68.750000, 20.000000, 12.000000
588, 75.000000, 20.000000, 12.000000
589, 81.250000, 20.000000, 12.000000
590, 87.500000, 20.000000, 12.000000
591, 93.750000, 20.000000, 12.000000
592, 100.000000, 20.000000, 12.000000
593, 106.250000, 20.000000, 12.000000
594, 112.500000, 20.000000, 12.000000
595, 118.750000, 20.000000, 12.000000
596, 125.000000, 20.000000, 12.000000
597, 131.250000, 20.000000, 12.000000
598, 137.500000, 20.000000, 12.000000
599, 143.750000, 20.000000, 12.000000
600, 150.000000, 20.000000, 12.000000
601, 0.000000, 0.000000, 16.000000
602, 6.250000, 0.000000, 16.000000
603, 12.500000, 0.000000, 16.000000
604, 18.750000, 0.000000, 16.000000
605, 25.000000, 0.000000, 16.000000
606, 31.250000, 0.000000, 16.000000
607, 37.500000, 0.000000, 16.000000
608, 43.750000, 0.000000, 16.000000
609, 50.000000, 0.000000, 16.000000
610, 56.250000, 0.000000, 16.000000
611, 62.500000, 0.000000, 16.000000
612, 68.750000, 0.000000, 16.000000
613, 75.000000, 0.000000, 16.000000
614, 81.250000, 0.000000, 16.000000
615, 87.500000, 0.000000, 16.000000
616, 93.750000, 0.000000, 16.000000
617, 100.000000, 0.000000, 16.000000
618, 106.250000, 0.000000, 16.000000
619, 112.500000, 0.000000, 16.000000
620, 118.750000, 0.000000, 16.000000
621, 125.000000, 0.000000, 16.000000
622, 131.250000, 0.000000, 16.000000
623, 137.500000, 0.000000, 16.000000
624, 143.750000, 0.000000, 16.000000
625, 150.000000, 0.000000, 16.000000
626, 0.000000, 4.000000, 16.000000
627, 6.250000, 4.000000, 16.000000
628, 12.500000, 4.000000, 16.000000
629, 18.750000, 4.000000, 16.000000
630, 25.000000, 4.000000, 16.000000
631, 31.250000, 4.000000, 16.000000
632, 37.500000, 4.000000, 16.000000
633, 43.750000, 4.000000, 16.000000
634, 50.000000, 4.000000, 16.000000
635, 56.250000, 4.000000, 16.000000
636, 62.500000, 4.000000, 16.000000
637, 68.750000, 4.000000, 16.000000
638, 75.000000, 4.000000, 16.000000
639, 81.250000, 4.000000, 16.000000
640, 87.500000, 4.000000, 16.000000
641, 93.750000, 4.000000, 16.000000
642, 100.000000, 4.000000, 16.000000
643, 106.250000, 4.000000, 16.000000
644, 112.500000, 4.000000, 16.000000
645, 118.750000, 4.000000, 16.000000
646, 125.000000, 4.000000, 16.000000
647, 131.250000, 4.000000, 16.000000
648, 137.500000, 4.000000, 16.000000
649, 143.750000, 4.000000, 16.000000
650, 150.000000, 4.000000, 16.000000
651, 0.000000, 8.000000, 16.000000
652, 6.250000, 8.000000, 16.000000
653, 12.500000, 8.000000, 16.000000
654, 18.750000, 8.000000, 16.000000
655, 25.000000, 8.000000, 16.000000
656, 31.250000, 8.000000, 16.000000
657, 37.500000, 8.000000, 16.000000
658, 43.750000, 8.000000, 16.000000
659, 50.000000, 8.000000, 16.000000
660, 56.250000, 8.000000, 16.000000
661, 62.500000, 8.000000, 16.000000
662, 68.750000, 8.000000, 16.000000
663, 75.000000, 8.000000, 16.000000
664, 81.250000, 8.000000, 16.000000
665, 87.500000, 8.000000, 16.000000
666, 93.750000, 8.000000, 16.000000
667, 100.000000, 8.000000, 16.000000
668, 106.250000, 8.000000, 16.000000
669, 112.500000, 8.000000, 16.000000
670, 118.750000, 8.000000, 16.000000
671, 125.000000, 8.000000, 16.000000
672, 131.250000, 8.000000, 16.000000
673, 137.500000, 8.000000, 16.000000
674, 143.750000, 8.000000, 16.000000
675, 150.000000, 8.000000, 16.000000
676, 0.000000, 12.000000, 16.000000
677, 6.250000, 12.000000, 16.000000
678, 12.500000, 12.000000, 16.000000
679, 18.750000, 12.000000, 16.000000
680, 25.000000, 12.000000, 16.000000
681, 31.250000, 12.000000, 16.000000
682, 37.500000, 12.000000, 16.000000
683, 43.750000, 12.000000, 16.000000
684, 50.000000, 12.000000, 16.000000
685, 56.250000, 12.000000, 16.000000
686, 62.500000, 12.000000, 16.000000
687, 68.750000, 12.000000, 16.000000
688, 75.000000, 12.000000, 16.000000
689, 81.250000, 12.000000, 16.000000
690, 87.500000, 12.000000, 16.000000
691, 93.750000, 12.000000, 16.000000
692, 100.000000, 12.000000, 16.000000
693, 106.250000, 12.000000, 16.000000
694, 112.500000, 12.000000, 16.000000
695, 118.750000, 12.000000, 16.000000
696, 125.000000, 12.000000, 16.000000
697, 131.250000, 12.000000, 16.000000
698, 137.500000, 12.000000, 16.000000
699, 143.750000, 12.000000, 16.000000
700, 150.000000, 12.000000, 16.000000
701, 0.000000, 16.000000, 16.000000
702, 6.250000, 16.000000, 16.000000
703, 12.500000, 16.000000, 16.000000
704, 18.750000, 16.000000, 16.000000
705, 25.000000, 16.000000, 16.000000
706, 31.250000, 16.000000, 16.000000
707, 37.500000, 16.000000, 16.000000
708, 43.750000, 16.000000, 16.000000
709, 50.000000, 16.000000, 16.000000
710, 56.250000, 16.000000, 16.000000
711, 62.500000, 16.000000, 16.000000
712, 68.750000, 16.000000, 16.000000
713, 75.000000, 16.000000, 16.000000
714, 81.250000, 16.000000, 16.000000
715, 87.500000, 16.000000, 16.000000
716, 93.750000, 16.000000, 16.000000
717, 100.000000, 16.000000, 16.000000
718, 106.250000, 16.000000, 16.000000
719, 112.500000, 16.000000, 16.000000
720, 118.750000, 16.000000, 16.000000
721, 125.000000, 16.000000, 16.000000
722, 131.250000, 16.000000, 16.000000
723, 137.500000, 16.000000, 16.000000
724, 143.750000, 16.000000, 16.000000
725, 150.000000, 16.000000, 16.000000
726, 0.000000, 20.000000, 16.000000
727, 6.250000, 20.000000, 16.000000
728, 12.500000, 20.000000, 16.000000
729, 18.750000, 20.000000, 16.000000
730, 25.000000, 20.000000, 16.000000
731, 31.250000, 20.000000, 16.000000
732, 37.500000, 20.000000, 16.000000
733, 43.750000, 20.000000, 16.000000
734, 50.000000, 20.000000, 16.000000
735, 56.250000, 20.000000, 16.000000
736, 62.500000, 20.000000, 16.000000
737, 68.750000, 20.000000, 16.000000
738, 75.000000, 20.000000, 16.000000
739, 81.250000, 20.000000, 16.000000
740, 87.500000, 20.000000, 16.000000
741, 93.750000, 20.000000, 16.000000
742, 100.000000, 20.000000, 16.000000
743, 106.250000, 20.000000, 16.000000
744, 112.500000, 20.000000, 16.000000
745, 118.750000, 20.000000, 16.000000
746, 125.000000, 20.000000, 16.000000
747, 131.250000, 20.000000, 16.000000
748, 137.500000, 20.000000, 16.000000
749, 143.750000, 20.000000, 16.000000
750, 150.000000, 20.000000, 16.000000
751, 0.000000, 0.000000, 20.000000
752, 6.250000, 0.000000, 20.000000
753, 12.500000, 0.000000, 20.000000
754, 18.750000, 0.000000, 20.000000
755, 25.000000, 0.000000, 20.000000
756, 31.250000, 0.000000, 20.000000
757, 37.500000, 0.000000, 20.000000
758, 43.750000, 0.000000, 20.000000
759, 50.000000, 0.000000, 20.000000
760, 56.250000, 0.000000, 20.000000
761, 62.500000, 0.000000, 20.000000
762, 68.750000, 0.000000, 20.000000
763, 75.000000, 0.000000, 20.000000
764, 81.250000, 0.000000, 20.000000
765, 87.500000, 0.000000, 20.000000
766, 93.750000, 0.000000, 20.000000
767, 100.000000, 0.000000, 20.000000
768, 106.250000, 0.000000, 20.000000
769, 112.500000, 0.000000, 20.000000
770, 118.750000, 0.000000, 20.000000
771, 125.000000, 0.000000, 20.000000
772, 131.250000, 0.000000, 20.000000
773, 137.500000, 0.000000, 20.000000
774, 143.750000, 0.000000, 20.000000
775, 150.000000, 0.000000, 20.000000
776, 0.000000, 4.000000, 20.000000
777, 6.250000, 4.000000, 20.000000
778, 12.500000, 4.000000, 20.000000
779, 18.750000, 4.000000, 20.000000
780, 25.000000, 4.000000, 20.000000
781, 31.250000, 4.000000, 20.000000
782, 37.500000, 4.000000, 20.000000
783, 43.750000, 4.000000, 20.000000
784, 50.000000, 4.000000, 20.000000
785, 56.250000, 4.000000, 20.000000
786, 62.500000, 4.000000, 20.000000
787, 68.750000, 4.000000, 20.000000
788, 75.000000, 4.000000, 20.000000
789, 81.250000, 4.000000, 20.000000
790, 87.500000, 4.000000, 20.000000
791, 93.750000, 4.000000, 20.000000
792, 100.000000, 4.000000, 20.000000
793, 106.250000, 4.000000, 20.000000
794, 112.500000, 4.000000, 20.000000
795, 118.750000, 4.000000, 20.000000
796, 125.000000, 4.000000, 20.000000
797, 131.250000, 4.000000, 20.000000
798, 137.500000, 4.000000, 20.000000
799, 143.750000, 4.000000, 20.000000
800, 150.000000, 4.000000, 20.000000
801, 0.000000, 8.000000, 20.000000
802, 6.250000, 8.000000, 20.000000
803, 12.500000, 8.000000, 20.000000
804, 18.750000, 8.000000, 20.000000
805, 25.000000, 8.000000, 20.000000
806, 31.250000, 8.000000, 20.000000
807, 37.500000, 8.000000, 20.000000
808, 43.750000, 8.000000, 20.000000
809, 50.000000, 8.000000, 20.000000
810, 56.250000, 8.000000, 20.000000
811, 62.500000, 8.000000, 20.000000
812, 68.750000, 8.000000, 20.000000
813, 75.000000, 8.000000, 20.000000
814, 81.250000, 8.000000, 20.000000
815, 87.500000, 8.000000, 20.000000
816, 93.750000, 8.000000, 20.000000
817, 100.000000, 8.000000, 20.000000
818, 106.250000, 8.000000, 20.000000
819, 112.500000, 8.000000, 20.000000
820, 118.750000, 8.000000, 20.000000
821, 125.000000, 8.000000, 20.000000
822, 131.250000, 8.000000, 20.000000
823, 137.500000, 8.000000, 20.000000
824, 143.750000, 8.000000, 20.000000
825, 150.000000, 8.000000, 20.000000
826, 0.000000, 12.000000, 20.000000
827, 6.250000, 12.000000, 20.000000
828, 12.500000, 12.000000, 20.000000
829, 18.750000, 12.000000, 20.000000
830, 25.000000, 12.000000, 20.000000
831, 31.250000, 12.000000, 20.000000
832, 37.500000, 12.000000, 20.000000
833, 43.750000, 12.000000, 20.000000
834, 50.000000, 12.000000, 20.000000
835, 56.250000, 12.000000, 20.000000
836, 62.500000, 12.000000, 20.000000
837, 68.750000, 12.000000, 20.000000
838, 75.000000, 12.000000, 20.000000
839, 81.250000, 12.000000, 20.000000
840, 87.500000, 12.000000, 20.000000
841, 93.750000, 12.000000, 20.000000
842, 100.000000, 12.000000, 20.000000
843, 106.250000, 12.000000, 20.000000
844, 112.500000, 12.000000, 20.000000
845, 118.750000, 12.000000, 20.000000
846, 125.000000, 12.000000, 20.000000
847, 131.250000, 12.000000, 20.000000
848, 137.500000, 12.000000, 20.000000
849, 143.750000, 12.000000, 20.000000
850, 150.000000, 12.000000, 20.000000
851, 0.000000, 16.000000, 20.000000
852, 6.250000, 16.000000, 20.000000
853, 12.500000, 16.000000, 20.000000
854, 18.750000, 16.000000, 20.000000
855, 25.000000, 16.000000, 20.000000
856, 31.250000, 16.000000, 20.000000
857, 37.500000, 16.000000, 20.000000
858, 43.750000, 16.000000, 20.000000
859, 50.000000, 16.000000, 20.000000
860, 56.250000, 16.000000, 20.000000
861, 62.500000, 16.000000, 20.000000
862, 68.750000, 16.000000, 20.000000
863, 75.000000, 16.000000, 20.000000
864, 81.250000, 16.000000, 20.000000
865, 87.500000, 16.000000, 20.000000
866, 93.750000, 16.000000, 20.000000
867, 100.000000, 16.000000, 20.000000
868, 106.250000, 16.000000, 20.000000
869, 112.500000, 16.000000, 20.000000
870, 118.750000, 16.000000, 20.000000
871, 125.000000, 16.000000, 20.000000
872, 131.250000, 16.000000, 20.000000
873, 137.500000, 16.000000, 20.000000
874, 143.750000, 16.000000, 20.000000
875, 150.000000, 16.000000, 20.000000
876, 0.000000, 20.000000, 20.000000
877, 6.250000, 20.000000, 20.000000
878, 12.500000, 20.000000, 20.000000
879, 18.750000, 20.000000, 20.000000
880, 25.000000, 20.000000, 20.000000
881, 31.250000, 20.000000, 20.000000
882, 37.500000, 20.000000, 20.000000
883, 43.750000, 20.000000, 20.000000
884, 50.000000, 20.000000, 20.000000
885, 56.250000, 20.000000, 20.000000
886, 62.500000, 20.000000, 20.000000
887, 68.750000, 20.000000, 20.000000
888, 75.000000, 20.000000, 20.000000
889, 81.250000, 20.000000, 20.000000
890, 87.500000, 20.000000, 20.000000
891, 93.750000, 20.000000, 20.000000
892, 100.000000, 20.000000, 20.000000
893, 106.250000, 20.000000, 20.000000
894, 112.500000, 20.000000, 20.000000
895, 118.750000, 20.000000, 20.000000
896, 125.000000, 20.000000, 20.000000
897, 131.250000, 20.000000, 20.000000
898, 137.500000, 20.000000, 20.000000
899, 143.750000, 20.000000, 20.000000
900, 150.000000, 20.000000, 20.000000
*ELEMENT, TYPE=C3D8, ELSET=EALL
1, 1, 2, 27, 26, 151, 152, 177, 176
2, 2, 3, 28, 27, 152, 153, 178, 177
3, 3, 4, 29, 28, 153, 154, 179, 178
4, 4, 5, 30, 29, 154, 155, 180, 179
5, 5, 6, 31, 30, 155, 156, 181, 180
6, 6, 7, 32, 31, 156, 157, 182, 181
7, 7, 8, 33, 32, 157, 158, 183, 182
8, 8, 9, 34, 33, 158, 159, 184, 183
9, 9, 10, 35, 34, 159, 160, 185, 184
10, 10, 11, 36, 35, 160, 161, 186, 185
11, 11, 12, 37, 36, 161, 162, 187, 186
12, 12, 13, 38, 37, 162, 163, 188, 187
13, 13, 14, 39, 38, 163, 164, 189, 188
14, 14, 15, 40, 39, 164, 165, 190, 189
15, 15, 16, 41, 40, 165, 166, 191, 190
16, 16, 17, 42, 41, 166, 167, 192, 191
17, 17, 18, 43, 42, 167, 168, 193, 192
18, 18, 19, 44, 43, 168, 169, 194, 193
19, 19, 20, 45, 44, 169, 170, 195, 194
20, 20, 21, 46, 45, 170, 171, 196, 195
21, 21, 22, 47, 46, 171, 172, 197, 196
22, 22, 23, 48, 47, 172, 173, 198, 197
23, 23, 24, 49, 48, 173, 174, 199, 198
24, 24, 25, 50, 49, 174, 175, 200, 199
25, 26, 27, 52, 51, 176, 177, 202, 201
26, 27, 28, 53, 52, 177, 178, 203, 202
27, 28, 29, 54, 53, 178, 179, 204, 203
28, 29, 30, 55, 54, 179, 180, 205, 204
29, 30, 31, 56, 55, 180, 181, 206, 205
30, 31, 32, 57, 56, 181, 182, 207, 206
31, 32, 33, 58, 57, 182, 183, 208, 207
32, 33, 34, 59, 58, 183, 184, 209, 208
33, 34, 35, 60, 59, 184, 185, 210, 209
34, 35, 36, 61, 60, 185, 186, 211, 210
35, 36, 37, 62, 61, 186, 187, 212, 211
36, 37, 38, 63, 62, 187, 188, 213, 212
37, 38, 39, 64, 63, 188, 189, 214, 213
38, 39, 40, 65, 64, 189, 190, 215, 214
39, 40, 41, 66, 65, 190, 191, 216, 215
40, 41, 42, 67, 66, 191, 192, 217, 216
41, 42, 43, 68, 67, 192, 193, 218, 217
42, 43, 44, 69, 68, 193, 194, 219, 218
43, 44, 45, 70, 69, 194, 195, 220, 219
44, 45, 46, 71, 70, 195, 196, 221, 220
45, 46, 47, 72, 71, 196, 197, 222, 221
46, 47, 48, 73, 72, 197, 198, 223, 222
47, 48, 49, 74, 73, 198, 199, 224, 223
48, 49, 50, 75, 74, 199, 200, 225, 224
49, 51, 52, 77, 76, 201, 202, 227, 226
50, 52, 53, 78, 77, 202, 203, 228, 227
51, 53, 54, 79, 78, 203, 204, 229, 228
52, 54, 55, 80, 79, 204, 205, 230, 229
53, 55, 56, 81, 80, 205, 206, 231, 230
54, 56, 57, 82, 81, 206, 207, 232, 231
55, 57, 58, 83, 82, 207, 208, 233, 232
56, 58, 59, 84, 83, 208, 209, 234, 233
57, 59, 60, 85, 84, 209, 210, 235, 234
58, 60, 61, 86, 85, 210, 211, 236, 235
59, 61, 62, 87, 86, 211, 212, 237, 236
60, 62, 63, 88, 87, 212, 213, 238, 237
61, 63, 64, 89, 88, 213, 214, 239, 238
62, 64, 65, 90, 89, 214, 215, 240, 239
63, 65, 66, 91, 90, 215, 216, 241, 240
64, 66, 67, 92, 91, 216, 217, 242, 241
65, 67, 68, 93, 92, 217, 218, 243, 242
66, 68, 69, 94, 93, 218, 219, 244, 243
67, 69, 70, 95, 94, 219, 220, 245, 244
68, 70, 71, 96, 95, 220, 221, 246, 245
69, 71, 72, 97, 96, 221, 222, 247, 246
70, 72, 73, 98, 97, 222, 223, 248, 247
71, 73, 74, 99, 98, 223, 224, 249, 248
72, 74, 75, 100, 99, 224, 225, 250, 249
73, 76, 77, 102, 101, 226, 227, 252, 251
74, 77, 78, 103, 102, 227, 228, 253, 252
75, 78, 79, 104, 103, 228, 229, 254, 253
76, 79, 80, 105, 104, 229, 230, 255, 254
77, 80, 81, 106, 105, 230, 231, 256, 255
78, 81, 82, 107, 106, 231, 232, 257, 256
79, 82, 83, 108, 107, 232, 233, 258, 257
80, 83, 84, 109, 108, 233, 234, 259, 258
81, 84, 85, 110, 109, 234, 235, 260, 259
82, 85, 86, 111, 110, 235, 236, 261, 260
83, 86, 87, 112, 111, 236, 237, 262, 261
84, 87, 88, 113, 112, 237, 238, 263, 262
85, 88, 89, 114, 113, 238, 239, 264, 263
86, 89, 90, 115, 114, 239, 240, 265, 264
87, 90, 91, 116, 115, 240, 241, 266, 265
88, 91, 92, 117, 116, 241, 242, 267, 266
89, 92, 93, 118, 117, 242, 243, 268, 267
90, 93, 94, 119, 118, 243, 244, 269, 268
91, 94, 95, 120, 119, 244, 245, 270, 269
92, 95, 96, 121, 120, 245, 246, 271, 270
93, 96, 97, 122, 121, 246, 247, 272, 271
94, 97, 98, 123, 122, 247, 248, 273, 272
95, 98, 99, 124, 123, 248, 249, 274, 273
96, 99, 100, 125, 124, 249, 250, 275, 274
97, 101, 102, 127, 126, 251, 252, 277, 276
98, 102, 103, 128, 127, 252, 253, 278, 277
99, 103, 104, 129, 128, 253, 254, 279, 278
100, 104, 105, 130, 129, 254, 255, 280, 279
101, 105, 106, 131, 130, 255, 256, 281, 280
102, 106, 107, 132, 131, 256, 257, 282, 281
103, 107, 108, 133, 132, 257, 258, 283, 282
104, 108, 109, 134, 133, 258, 259, 284, 283
105, 109, 110, 135, 134, 259, 260, 285, 284
106, 110, 111, 136, 135, 260, 261, 286, 285
107, 111, 112, 137, 136, 261, 262, 287, 286
108, 112, 113, 138, 137, 262, 263, 288, 287
109, 113, 114, 139, 138, 263, 264, 289, 288
110, 114, 115, 140, 139, 264, 265, 290, 289
111, 115, 116, 141, 140, 265, 266, 291, 290
112, 116, 117, 142, 141, 266, 267, 292, 291
113, 117, 118, 143, 142, 267, 268, 293, 292
114, 118, 119, 144, 143, 268, 269, 294, 293
115, 119, 120, 145, 144, 269, 270, 295, 294
116, 120, 121, 146, 145, 270, 271, 296, 295
117, 121, 122, 147, 146, 271, 272, 297, 296
118, 122, 123, 148, 147, 272, 273, 298, 297
119, 123, 124, 149, 148, 273, 274, 299, 298
120, 124, 125, 150, 149, 274, 275, 300, 299
121, 151, 152, 177, 176, 301, 302, 327, 326
122, 152, 153, 178, 177, 302, 303, 328, 327
123, 153, 154, 179, 178, 303, 304, 329, 328
124, 154, 155, 180, 179, 304, 305, 330, 329
125, 155, 156, 181, 180, 305, 306, 331, 330
126, 156, 157, 182, 181, 306, 307, 332, 331
127, 157, 158, 183, 182, 307, 308, 333, 332
128, 158, 159, 184, 183, 308, 309, 334, 333
129, 159, 160, 185, 184, 309, 310, 335, 334
130, 160, 161, 186, 185, 310, 311, 336, 335
131, 161, 162, 187, 186, 311, 312, 337, 336
132, 162, 163, 188, 187, 312, 313, 338, 337
133, 163, 164, 189, 188, 313, 314, 339, 338
134, 164, 165, 190, 189, 314, 315, 340, 339
135, 165, 166, 191, 190, 315, 316, 341, 340
136, 166, 167, 192, 191, 316, 317, 342, 341
137, 167, 168, 193, 192, 317, 318, 343, 342
138, 168, 169, 194, 193, 318, 319, 344, 343
139, 169, 170, 195, 194, 319, 320, 345, 344
140, 170, 171, 196, 195, 320, 321, 346, 345
141, 171, 172, 197, 196, 321, 322, 347, 346
142, 172, 173, 198, 197, 322, 323, 348, 347
143, 173, 174, 199, 198, 323, 324, 349, 348
144, 174, 175, 200, 199, 324, 325, 350, 349
145, 176, 177, 202, 201, 326, 327, 352, 351
146, 177, 178, 203, 202, 327, 328, 353, 352
147, 178, 179, 204, 203, 328, 329, 354, 353
148, 179, 180, 205, 204, 329, 330, 355, 354
149, 180, 181, 206, 205, 330, 331, 356, 355
150, 181, 182, 207, 206, 331, 332, 357, 356
151, 182, 183, 208, 207, 332, 333, 358, 357
152, 183, 184, 209, 208, 333, 334, 359, 358
153, 184, 185, 210, 209, 334, 335, 360, 359
154, 185, 186, 211, 210, 335, 336, 361, 360
155, 186, 187, 212, 211, 336, 337, 362, 361
156, 187, 188, 213, 212, 337, 338, 363, 362
157, 188, 189, 214, 213, 338, 339, 364, 363
158, 189, 190, 215, 214, 339, 340, 365, 364
159, 190, 191, 216, 215, 340, 341, 366, 365
160, 191, 192, 217, 216, 341, 342, 367, 366
161, 192, 193, 218, 217, 342, 343, 368, 367
162, 193, 194, 219, 218, 343, 344, 369, 368
163, 194, 195, 220, 219, 344, 345, 370, 369
164, 195, 196, 221, 220, 345, 346, 371, 370
165, 196, 197, 222, 221, 346, 347, 372, 371
166, 197, 198, 223, 222, 347, 348, 373, 372
167, 198, 199, 224, 223, 348, 349, 374, 373
168, 199, 200, 225, 224, 349, 350, 375, 374
169, 201, 202, 227, 226, 351, 352, 377, 376
170, 202, 203, 228, 227, 352, 353, 378, 377
171, 203, 204, 229, 228, 353, 354, 379, 378
172, 204, 205, 230, 229, 354, 355, 380, 379
173, 205, 206, 231, 230, 355, 356, 381, 380
174, 206, 207, 232, 231, 356, 357, 382, 381
175, 207, 208, 233, 232, 357, 358, 383, 382
176, 208, 209, 234, 233, 358, 359, 384, 383
177, 209, 210, 235, 234, 359, 360, 385, 384
178, 210, 211, 236, 235, 360, 361, 386, 385
179, 211, 212, 237, 236, 361, 362, 387, 386
180, 212, 213, 238, 237, 362, 363, 388, 387
181, 213, 214, 239, 238, 363, 364, 389, 388
182, 214, 215, 240, 239, 364, 365, 390, 389
183, 215, 216, 241, 240, 365, 366, 391, 390
184, 216, 217, 242, 241, 366, 367, 392, 391
185, 217, 218, 243, 242, 367, 368, 393, 392
186, 218, 219, 244, 243, 368, 369, 394, 393
187, 219, 220, 245, 244, 369, 370, 395, 394
188, 220, 221, 246, 245, 370, 371, 396, 395
189, 221, 222, 247, 246, 371, 372, 397, 396
190, 222, 223, 248, 247, 372, 373, 398, 397
191, 223, 224, 249, 248, 373, 374, 399, 398
192, 224, 225, 250, 249, 374, 375, 400, 399
193, 226, 227, 252, 251, 376, 377, 402, 401
194, 227, 228, 253, 252, 377, 378, 403, 402
195, 228, 229, 254, 253, 378, 379, 404, 403
196, 229, 230, 255, 254, 379, 380, 405, 404
197, 230, 231, 256, 255, 380, 381, 406, 405
198, 231, 232, 257, 256, 381, 382, 407, 406
199, 232, 233, 258, 257, 382, 383, 408, 407
200, 233, 234, 259, 258, 383, 384, 409, 408
201, 234, 235, 260, 259, 384, 385, 410, 409
202, 235, 236, 261, 260, 385, 386, 411, 410
203, 236, 237, 262, 261, 386, 387, 412, 411
204, 237, 238, 263, 262, 387, 388, 413, 412
205, 238, 239, 264, 263, 388, 389, 414, 413
206, 239, 240, 265, 264, 389, 390, 415, 414
207, 240, 241, 266, 265, 390, 391, 416, 415
208, 241, 242, 267, 266, 391, 392, 417, 416
209, 242, 243, 268, 267, 392, 393, 418, 417
210, 243, 244, 269, 268, 393, 394, 419, 418
211, 244, 245, 270, 269, 394, 395, 420, 419
212, 245, 246, 271, 270, 395, 396, 421, 420
213, 246, 247, 272, 271, 396, 397, 422, 421
214, 247, 248, 273, 272, 397, 398, 423, 422
215, 248, 249, 274, 273, 398, 399, 424, 423
216, 249, 250, 275, 274, 399, 400, 425, 424
217, 251, 252, 277, 276, 401, 402, 427, 426
218, 252, 253, 278, 277, 402, 403, 428, 427
219, 253, 254, 279, 278, 403, 404, 429, 428
220, 254, 255, 280, 279, 404, 405, 430, 429
221, 255, 256, 281, 280, 405, 406, 431, 430
222, 256, 257, 282, 281, 406, 407, 432, 431
223, 257, 258, 283, 282, 407, 408, 433, 432
224, 258, 259, 284, 283, 408, 409, 434, 433
225, 259, 260, 285, 284, 409, 410, 435, 434
226, 260, 261, 286, 285, 410, 411, 436, 435
227, 261, 262, 287, 286, 411, 412, 437, 436
228, 262, 263, 288, 287, 412, 413, 438, 437
229, 263, 264, 289, 288, 413, 414, 439, 438
230, 264, 265, 290, 289, 414, 415, 440, 439
231, 265, 266, 291, 290, 415, 416, 441, 440
232, 266, 267, 292, 291, 416, 417, 442, 441
233, 267, 268, 293, 292, 417, 418, 443, 442
234, 268, 269, 294, 293, 418, 419, 444, 443
235, 269, 270, 295, 294, 419, 420, 445, 444
236, 270, 271, 296, 295, 420, 421, 446, 445
237, 271, 272, 297, 296, 421, 422, 447, 446
238, 272, 273, 298, 297, 422, 423, 448, 447
239, 273, 274, 299, 298, 423, 424, 449, 448
240, 274, 275, 300, 299, 424, 425, 450, 449
241, 301, 302, 327, 326, 451, 452, 477, 476
242, 302, 303, 328, 327, 452, 453, 478, 477
243, 303, 304, 329, 328, 453, 454, 479, 478
244, 304, 305, 330, 329, 454, 455, 480, 479
245, 305, 306, 331, 330, 455, 456, 481, 480
246, 306, 307, 332, 331, 456, 457, 482, 481
247, 307, 308, 333, 332, 457, 458, 483, 482
248, 308, 309, 334, 333, 458, 459, 484, 483
249, 309, 310, 335, 334, 459, 460, 485, 484
250, 310, 311, 336, 335, 460, 461, 486, 485
251, 311, 312, 337, 336, 461, 462, 487, 486
252, 312, 313, 338, 337, 462, 463, 488, 487
253, 313, 314, 339, 338, 463, 464, 489, 488
254, 314, 315, 340, 339, 464, 465, 490, 489
255, 315, 316, 341, 340, 465, 466, 491, 490
256, 316, 317, 342, 341, 466, 467, 492, 491
257, 317, 318, 343, 342, 467, 468, 493, 492
258, 318, 319, 344, 343, 468, 469, 494, 493
259, 319, 320, 345, 344, 469, 470, 495, 494
260, 320, 321, 346, 345, 470, 471, 496, 495
261, 321, 322, 347, 346, 471, 472, 497, 496
262, 322, 323, 348, 347, 472, 473, 498, 497
263, 323, 324, 349, 348, 473, 474, 499, 498
264, 324, 325, 350, 349, 474, 475, 500, 499
265, 326, 327, 352, 351, 476, 477, 502, 501
266, 327, 328, 353, 352, 477, 478, 503, 502
267, 328, 329, 354, 353, 478, 479, 504, 503
268, 329, 330, 355, 354, 479, 480, 505, 504
269, 330, 331, 356, 355, 480, 481, 506, 505
270, 331, 332, 357, 356, 481, 482, 507, 506
271, 332, 333, 358, 357, 482, 483, 508, 507
272, 333, 334, 359, 358, 483, 484, 509, 508
273, 334, 335, 360, 359, 484, 485, 510, 509
274, 335, 336, 361, 360, 485, 486, 511, 510
275, 336, 337, 362, 361, 486, 487, 512, 511
276, 337, 338, 363, 362, 487, 488, 513, 512
277, 338, 339, 364, 363, 488, 489, 514, 513
278, 339, 340, 365, 364, 489, 490, 515, 514
279, 340, 341, 366, 365, 490, 491, 516, 515
280, 341, 342, 367, 366, 491, 492, 517, 516
281, 342, 343, 368, 367, 492, 493, 518, 517
282, 343, 344, 369, 368, 493, 494, 519, 518
283, 344, 345, 370, 369, 494, 495, 520, 519
284, 345, 346, 371, 370, 495, 496, 521, 520
285, 346, 347, 372, 371, 496, 497, 522, 521
286, 347, 348, 373, 372, 497, 498, 523, 522
287, 348, 349, 374, 373, 498, 499, 524, 523
288, 349, 350, 375, 374, 499, 500, 525, 524
289, 351, 352, 377, 376, 501, 502, 527, 526
290, 352, 353, 378, 377, 502, 503, 528, 527
291, 353, 354, 379, 378, 503, 504, 529, 528
292, 354, 355, 380, 379, 504, 505, 530, 529
293, 355, 356, 381, 380, 505, 506, 531, 530
294, 356, 357, 382, 381, 506, 507, 532, 531
295, 357, 358, 383, 382, 507, 508, 533, 532
296, 358, 359, 384, 383, 508, 509, 534, 533
297, 359, 360, 385, 384, 509, 510, 535, 534
298, 360, 361, 386, 385, 510, 511, 536, 535
299, 361, 362, 387, 386, 511, 512, 537, 536
300, 362, 363, 388, 387, 512, 513, 538, 537
301, 363, 364, 389, 388, 513, 514, 539, 538
302, 364, 365, 390, 389, 514, 515, 540, 539
303, 365, 366, 391, 390, 515, 516, 541, 540
304, 366, 367, 392, 391, 516, 517, 542, 541
305, 367, 368, 393, 392, 517, 518, 543, 542
306, 368, 369, 394, 393, 518, 519, 544, 543
307, 369, 370, 395, 394, 519, 520, 545, 544
308, 370, 371, 396, 395, 520, 521, 546, 545
309, 371, 372, 397, 396, 521, 522, 547, 546
310, 372, 373, 398, 397, 522, 523, 548, 547
311, 373, 374, 399, 398, 523, 524, 549, 548
312, 374, 375, 400, 399, 524, 525, 550, 549
313, 376, 377, 402, 401, 526, 527, 552, 551
314, 377, 378, 403, 402, 527, 528, 553, 552
315, 378, 379, 404, 403, 528, 529, 554, 553
316, 379, 380, 405, 404, 529, 530, 555, 554
317, 380, 381, 406, 405, 530, 531, 556, 555
318, 381, 382, 407, 406, 531, 532, 557, 556
319, 382, 383, 408, 407, 532, 533, 558, 557
320, 383, 384, 409, 408, 533, 534, 559, 558
321, 384, 385, 410, 409, 534, 535, 560, 559
322, 385, 386, 411, 410, 535, 536, 561, 560
323, 386, 387, 412, 411, 536, 537, 562, 561
324, 387, 388, 413, 412, 537, 538, 563, 562
325, 388, 389, 414, 413, 538, 539, 564, 563
326, 389, 390, 415, 414, 539, 540, 565, 564
327, 390, 391, 416, 415, 540, 541, 566, 565
328, 391, 392, 417, 416, 541, 542, 567, 566
329, 392, 393, 418, 417, 542, 543, 568, 567
330, 393, 394, 419, 418, 543, 544, 569, 568
331, 394, 395, 420, 419, 544, 545, 570, 569
332, 395, 396, 421, 420, 545, 546, 571, 570
333, 396, 397, 422, 421, 546, 547, 572, 571
334, 397, 398, 423, 422, 547, 548, 573, 572
335, 398, 399, 424, 423, 548, 549, 574, 573
336, 399, 400, 425, 424, 549, 550, 575, 574
337, 401, 402, 427, 426, 551, 552, 577, 576
338, 402, 403, 428, 427, 552, 553, 578, 577
339, 403, 404, 429, 428, 553, 554, 579, 578
340, 404, 405, 430, 429, 554, 555, 580, 579
341, 405, 406, 431, 430, 555, 556, 581, 580
342, 406, 407, 432, 431, 556, 557, 582, 581
343, 407, 408, 433, 432, 557, 558, 583, 582
344, 408, 409, 434, 433, 558, 559, 584, 583
345, 409, 410, 435, 434, 559, 560, 585, 584
346, 410, 411, 436, 435, 560, 561, 586, 585
347, 411, 412, 437, 436, 561, 562, 587, 586
348, 412, 413, 438, 437, 562, 563, 588, 587
349, 413, 414, 439, 438, 563, 564, 589, 588
350, 414, 415, 440, 439, 564, 565, 590, 589
351, 415, 416, 441, 440, 565, 566, 591, 590
352, 416, 417, 442, 441, 566, 567, 592, 591
353, 417, 418, 443, 442, 567, 568, 593, 592
354, 418, 419, 444, 443, 568, 569, 594, 593
355, 419, 420, 445, 444, 569, 570, 595, 594
356, 420, 421, 446, 445, 570, 571, 596, 595
357, 421, 422, 447, 446, 571, 572, 597, 596
358, 422, 423, 448, 447, 572, 573, 598, 597
359, 423, 424, 449, 448, 573, 574, 599, 598
360, 424, 425, 450, 449, 574, 575, 600, 599
361, 451, 452, 477, 476, 601, 602, 627, 626
362, 452, 453, 478, 477, 602, 603, 628, 627
363, 453, 454, 479, 478, 603, 604, 629, 628
364, 454, 455, 480, 479, 604, 605, 630, 629
365, 455, 456, 481, 480, 605, 606, 631, 630
366, 456, 457, 482, 481, 606, 607, 632, 631
367, 457, 458, 483, 482, 607, 608, 633, 632
368, 458, 459, 484, 483, 608, 609, 634, 633
369, 459, 460, 485, 484, 609, 610, 635, 634
370, 460, 461, 486, 485, 610, 611, 636, 635
371, 461, 462, 487, 486, 611, 612, 637, 636
372, 462, 463, 488, 487, 612, 613, 638, 637
373, 463, 464, 489, 488, 613, 614, 639, 638
374, 464, 465, 490, 489, 614, 615, 640, 639
375, 465, 466, 491, 490, 615, 616, 641, 640
376, 466, 467, 492, 491, 616, 617, 642, 641
377, 467, 468, 493, 492, 617, 618, 643, 642
378, 468, 469, 494, 493, 618, 619, 644, 643
379, 469, 470, 495, 494, 619, 620, 645, 644
380, 470, 471, 496, 495, 620, 621, 646, 645
381, 471, 472, 497, 496, 621, 622, 647, 646
382, 472, 473, 498, 497, 622, 623, 648, 647
383, 473, 474, 499, 498, 623, 624, 649, 648
384, 474, 475, 500, 499, 624, 625, 650, 649
385, 476, 477, 502, 501, 626, 627, 652, 651
386, 477, 478, 503, 502, 627, 628, 653, 652
387, 478, 479, 504, 503, 628, 629, 654, 653
388, 479, 480, 505, 504, 629, 630, 655, 654
389, 480, 481, 506, 505, 630, 631, 656, 655
390, 481, 482, 507, 506, 631, 632, 657, 656
391, 482, 483, 508, 507, 632, 633, 658, 657
392, 483, 484, 509, 508, 633, 634, 659, 658
393, 484, 485, 510, 509, 634, 635, 660, 659
394, 485, 486, 511, 510, 635, 636, 661, 660
395, 486, 487, 512, 511, 636, 637, 662, 661
396, 487, 488, 513, 512, 637, 638, 663, 662
397, 488, 489, 514, 513, 638, 639, 664, 663
398, 489, 490, 515, 514, 639, 640, 665, 664
399, 490, 491, 516, 515, 640, 641, 666, 665
400, 491, 492, 517, 516, 641, 642, 667, 666
401, 492, 493, 518, 517, 642, 643, 668, 667
402, 493, 494, 519, 518, 643, 644, 669, 668
403, 494, 495, 520, 519, 644, 645, 670, 669
404, 495, 496, 521, 520, 645, 646, 671, 670
405, 496, 497, 522, 521, 646, 647, 672, 671
406, 497, 498, 523, 522, 647, 648, 673, 672
407, 498, 499, 524, 523, 648, 649, 674, 673
408, 499, 500, 525, 524, 649, 650, 675, 674
409, 501, 502, 527, 526, 651, 652, 677, 676
410, 502, 503, 528, 527, 652, 653, 678, 677
411, 503, 504, 529, 528, 653, 654, 679, 678
412, 504, 505, 530, 529, 654, 655, 680, 679
413, 505, 506, 531, 530, 655, 656, 681, 680
414, 506, 507, 532, 531, 656, 657, 682, 681
415, 507, 508, 533, 532, 657, 658, 683, 682
416, 508, 509, 534, 533, 658, 659, 684, 683
417, 509, 510, 535, 534, 659, 660, 685, 684
418, 510, 511, 536, 535, 660, 661, 686, 685
419, 511, 512, 537, 536, 661, 662, 687, 686
420, 512, 513, 538, 537, 662, 663, 688, 687
421, 513, 514, 539, 538, 663, 664, 689, 688
422, 514, 515, 540, 539, 664, 665, 690, 689
423, 515, 516, 541, 540, 665, 666, 691, 690
424, 516, 517, 542, 541, 666, 667, 692, 691
425, 517, 518, 543, 542, 667, 668, 693, 692
426, 518, 519, 544, 543, 668, 669, 694, 693
427, 519, 520, 545, 544, 669, 670, 695, 694
428, 520, 521, 546, 545, 670, 671, 696, 695
429, 521, 522, 547, 546, 671, 672, 697, 696
430, 522, 523, 548, 547, 672, 673, 698, 697
431, 523, 524, 549, 548, 673, 674, 699, 698
432, 524, 525, 550, 549, 674, 675, 700, 699
433, 526, 527, 552, 551, 676, 677, 702, 701
434, 527, 528, 553, 552, 677, 678, 703, 702
435, 528, 529, 554, 553, 678, 679, 704, 703
436, 529, 530, 555, 554, 679, 680, 705, 704
437, 530, 531, 556, 555, 680, 681, 706, 705
438, 531, 532, 557, 556, 681, 682, 707, 706
439, 532, 533, 558, 557, 682, 683, 708, 707
440, 533, 534, 559, 558, 683, 684, 709, 708
441, 534, 535, 560, 559, 684, 685, 710, 709
442, 535, 536, 561, 560, 685, 686, 711, 710
443, 536, 537, 562, 561, 686, 687, 712, 711
444, 537, 538, 563, 562, 687, 688, 713, 712
445, 538, 539, 564, 563, 688, 689, 714, 713
446, 539, 540, 565, 564, 689, 690, 715, 714
447, 540, 541, 566, 565, 690, 691, 716, 715
448, 541, 542, 567, 566, 691, 692, 717, 716
449, 542, 543, 568, 567, 692, 693, 718, 717
450, 543, 544, 569, 568, 693, 694, 719, 718
451, 544, 545, 570, 569, 694, 695, 720, 719
452, 545, 546, 571, 570, 695, 696, 721, 720
453, 546, 547, 572, 571, 696, 697, 722, 721
454, 547, 548, 573, 572, 697, 698, 723, 722
455, 548, 549, 574, 573, 698, 699, 724, 723
456, 549, 550, 575, 574, 699, 700, 725, 724
457, 551, 552, 577, 576, 701, 702, 727, 726
458, 552, 553, 578, 577, 702, 703, 728, 727
459, 553, 554, 579, 578, 703, 704, 729, 728
460, 554, 555, 580, 579, 704, 705, 730, 729
461, 555, 556, 581, 580, 705, 706, 731, 730
462, 556, 557, 582, 581, 706, 707, 732, 731
463, 557, 558, 583, 582, 707, 708, 733, 732
464, 558, 559, 584, 583, 708, 709, 734, 733
465, 559, 560, 585, 584, 709, 710, 735, 734
466, 560, 561, 586, 585, 710, 711, 736, 735
467, 561, 562, 587, 586, 711, 712, 737, 736
468, 562, 563, 588, 587, 712, 713, 738, 737
469, 563, 564, 589, 588, 713, 714, 739, 738
470, 564, 565, 590, 589, 714, 715, 740, 739
471, 565, 566, 591, 590, 715, 716, 741, 740
472, 566, 567, 592, 591, 716, 717, 742, 741
473, 567, 568, 593, 592, 717, 718, 743, 742
474, 568, 569, 594, 593, 718, 719, 744, 743
475, 569, 570, 595, 594, 719, 720, 745, 744
476, 570, 571, 596, 595, 720, 721, 746, 745
477, 571, 572, 597, 596, 721, 722, 747, 746
478, 572, 573, 598, 597, 722, 723, 748, 747
479, 573, 574, 599, 598, 723, 724, 749, 748
480, 574, 575, 600, 599, 724, 725, 750, 749
481, 601, 602, 627, 626, 751, 752, 777, 776
482, 602, 603, 628, 627, 752, 753, 778, 777
483, 603, 604, 629, 628, 753, 754, 779, 778
484, 604, 605, 630, 629, 754, 755, 780, 779
485, 605, 606, 631, 630, 755, 756, 781, 780
486, 606, 607, 632, 631, 756, 757, 782, 781
487, 607, 608, 633, 632, 757, 758, 783, 782
488, 608, 609, 634, 633, 758, 759, 784, 783
489, 609, 610, 635, 634, 759, 760, 785, 784
490, 610, 611, 636, 635, 760, 761, 786, 785
491, 611, 612, 637, 636, 761, 762, 787, 786
492, 612, 613, 638, 637, 762, 763, 788, 787
493, 613, 614, 639, 638, 763, 764, 789, 788
494, 614, 615, 640, 639, 764, 765, 790, 789
495, 615, 616, 641, 640, 765, 766, 791, 790
496, 616, 617, 642, 641, 766, 767, 792, 791
497, 617, 618, 643, 642, 767, 768, 793, 792
498, 618, 619, 644, 643, 768, 769, 794, 793
499, 619, 620, 645, 644, 769, 770, 795, 794
500, 620, 621, 646, 645, 770, 771, 796, 795
501, 621, 622, 647, 646, 771, 772, 797, 796
502, 622, 623, 648, 647, 772, 773, 798, 797
503, 623, 624, 649, 648, 773, 774, 799, 798
504, 624, 625, 650, 649, 774, 775, 800, 799
505, 626, 627, 652, 651, 776, 777, 802, 801
506, 627, 628, 653, 652, 777, 778, 803, 802
507, 628, 629, 654, 653, 778, 779, 804, 803
508, 629, 630, 655, 654, 779, 780, 805, 804
509, 630, 631, 656, 655, 780, 781, 806, 805
510, 631, 632, 657, 656, 781, 782, 807, 806
511, 632, 633, 658, 657, 782, 783, 808, 807
512, 633, 634, 659, 658, 783, 784, 809, 808
513, 634, 635, 660, 659, 784, 785, 810, 809
514, 635, 636, 661, 660, 785, 786, 811, 810
515, 636, 637, 662, 661, 786, 787, 812, 811
516, 637, 638, 663, 662, 787, 788, 813, 812
517, 638, 639, 664, 663, 788, 789, 814, 813
518, 639, 640, 665, 664, 789, 790, 815, 814
519, 640, 641, 666, 665, 790, 791, 816, 815
520, 641, 642, 667, 666, 791, 792, 817, 816
521, 642, 643, 668, 667, 792, 793, 818, 817
522, 643, 644, 669, 668, 793, 794, 819, 818
523, 644, 645, 670, 669, 794, 795, 820, 819
524, 645, 646, 671, 670, 795, 796, 821, 820
525, 646, 647, 672, 671, 796, 797, 822, 821
526, 647, 648, 673, 672, 797, 798, 823, 822
527, 648, 649, 674, 673, 798, 799, 824, 823
528, 649, 650, 675, 674, 799, 800, 825, 824
529, 651, 652, 677, 676, 801, 802, 827, 826
530, 652, 653, 678, 677, 802, 803, 828, 827
531, 653, 654, 679, 678, 803, 804, 829, 828
532, 654, 655, 680, 679, 804, 805, 830, 829
533, 655, 656, 681, 680, 805, 806, 831, 830
534, 656, 657, 682, 681, 806, 807, 832, 831
535, 657, 658, 683, 682, 807, 808, 833, 832
536, 658, 659, 684, 683, 808, 809, 834, 833
537, 659, 660, 685, 684, 809, 810, 835, 834
538, 660, 661, 686, 685, 810, 811, 836, 835
539, 661, 662, 687, 686, 811, 812, 837, 836
540, 662, 663, 688, 687, 812, 813, 838, 837
541, 663, 664, 689, 688, 813, 814, 839, 838
542, 664, 665, 690, 689, 814, 815, 840, 839
543, 665, 666, 691, 690, 815, 816, 841, 840
544, 666, 667, 692, 691, 816, 817, 842, 841
545, 667, 668, 693, 692, 817, 818, 843, 842
546, 668, 669, 694, 693, 818, 819, 844, 843
547, 669, 670, 695, 694, 819, 820, 845, 844
548, 670, 671, 696, 695, 820, 821, 846, 845
549, 671, 672, 697, 696, 821, 822, 847, 846
550, 672, 673, 698, 697, 822, 823, 848, 847
551, 673, 674, 699, 698, 823, 824, 849, 848
552, 674, 675, 700, 699, 824, 825, 850, 849
553, 676, 677, 702, 701, 826, 827, 852, 851
554, 677, 678, 703, 702, 827, 828, 853, 852
555, 678, 679, 704, 703, 828, 829, 854, 853
556, 679, 680, 705, 704, 829, 830, 855, 854
557, 680, 681, 706, 705, 830, 831, 856, 855
558, 681, 682, 707, 706, 831, 832, 857, 856
559, 682, 683, 708, 707, 832, 833, 858, 857
560, 683, 684, 709, 708, 833, 834, 859, 858
561, 684, 685, 710, 709, 834, 835, 860, 859
562, 685, 686, 711, 710, 835, 836, 861, 860
563, 686, 687, 712, 711, 836, 837, 862, 861
564, 687, 688, 713, 712, 837, 838, 863, 862
565, 688, 689, 714, 713, 838, 839, 864, 863
566, 689, 690, 715, 714, 839, 840, 865, 864
567, 690, 691, 716, 715, 840, 841, 866, 865
568, 691, 692, 717, 716, 841, 842, 867, 866
569, 692, 693, 718, 717, 842, 843, 868, 867
570, 693, 694, 719, 718, 843, 844, 869, 868
571, 694, 695, 720, 719, 844, 845, 870, 869
572, 695, 696, 721, 720, 845, 846, 871, 870
573, 696, 697, 722, 721, 846, 847, 872, 871
574, 697, 698, 723, 722, 847, 848, 873, 872
575, 698, 699, 724, 723, 848, 849, 874, 873
576, 699, 700, 725, 724, 849, 850, 875, 874
577, 701, 702, 727, 726, 851, 852, 877, 876
578, 702, 703, 728, 727, 852, 853, 878, 877
579, 703, 704, 729, 728, 853, 854, 879, 878
580, 704, 705, 730, 729, 854, 855, 880, 879
581, 705, 706, 731, 730, 855, 856, 881, 880
582, 706, 707, 732, 731, 856, 857, 882, 881
583, 707, 708, 733, 732, 857, 858, 883, 882
584, 708, 709, 734, 733, 858, 859, 884, 883
585, 709, 710, 735, 734, 859, 860, 885, 884
586, 710, 711, 736, 735, 860, 861, 886, 885
587, 711, 712, 737, 736, 861, 862, 887, 886
588, 712, 713, 738, 737, 862, 863, 888, 887
589, 713, 714, 739, 738, 863, 864, 889, 888
590, 714, 715, 740, 739, 864, 865, 890, 889
591, 715, 716, 741, 740, 865, 866, 891, 890
592, 716, 717, 742, 741, 866, 867, 892, 891
593, 717, 718, 743, 742, 867, 868, 893, 892
594, 718, 719, 744, 743, 868, 869, 894, 893
595, 719, 720, 745, 744, 869, 870, 895, 894
596, 720, 721, 746, 745, 870, 871, 896, 895
597, 721, 722, 747, 746, 871, 872, 897, 896
598, 722, 723, 748, 747, 872, 873, 898, 897
599, 723, 724, 749, 748, 873, 874, 899, 898
600, 724, 725, 750, 749, 874, 875, 900, 899
*NSET, NSET=FIXED
1, 26, 51, 76, 101, 126, 151, 176
201, 226, 251, 276, 301, 326, 351, 376
401, 426, 451, 476, 501, 526, 551, 576
601, 626, 651, 676, 701, 726, 751, 776
801, 826, 851, 876
*NSET, NSET=TIP
25, 50, 75, 100, 125, 150, 175, 200
225, 250, 275, 300, 325, 350, 375, 400
425, 450, 475, 500, 525, 550, 575, 600
625, 650, 675, 700, 725, 750, 775, 800
825, 850, 875, 900
*MATERIAL, NAME=STEEL
*ELASTIC
210000.0, 0.3
*DENSITY
7.85E-9
*SOLID SECTION, ELSET=EALL, MATERIAL=STEEL
*BOUNDARY
FIXED, 1, 3
*STEP
*STATIC
*CLOAD
TIP, 3, -1.666667
*NODE FILE
U
*EL FILE
S, E
*END STEP
